2 51

100 7538
99 7585
98 7676
97 7699
96 7711
95 7724
94 7738
93 7752
92 7760
91 7768
90 7779
89 7789
88 7800
87 7804
86 7814
85 7826
84 7842
83 7844
82 7847
81 7852
80 7860
79 7863
78 7872
77 7873
76 7882
75 7884
74 7893
73 7901
72 7907
71 7916
70 7923
69 7929
68 7942
67 7944
66 7952
64 7958
63 7961
62 7965
61 7970
60 7979
59 7981
56 7987
55 7991
54 7992
53 7997
50 7998
49 7999
46 8000
45 8001
44 8004
40 8008
